WARNING: for repeatability, setting FPU to use double precision
============================[ Problem Statistics ]=============================
|                                                                             |
|  Number of variables:           100                                         |
|  Number of clauses:             449                                         |
|  Parse time:                   0.00 s                                       |
|  Eliminated clauses:           0.00 Mb                                      |
|  Simplification time:          0.00 s                                       |
|                                                                             |
============================[ Search Statistics ]==============================
| Conflicts |          ORIGINAL         |          LEARNT          | Progress |
|           |    Vars  Clauses Literals |    Limit  Clauses Lit/Cl |          |
===============================================================================
|       100 |      97      429     1290 |      157      100      7 |  0.010 % |
===============================================================================
restarts              : 3
conflicts             : 225            (71045 /sec)
decisions             : 311            (0.00 % random) (98200 /sec)
propagations          : 4872           (1538364 /sec)
conflict literals     : 1405           (17.40 % deleted)
Memory used           : 13.00 MB
CPU time              : 0.003167 s

SATISFIABLE
